solution status: time limit reached
objective value:                            51302.431
y#11                                                1 	(obj:5700)
y#18                                                1 	(obj:5700)
y#21                                                1 	(obj:5700)
y#27                                                1 	(obj:5700)
y#33                                                1 	(obj:5700)
y#46                                                1 	(obj:5700)
y#53                                                1 	(obj:5700)
y#56                                                1 	(obj:5700)
y#58                                                1 	(obj:5700)
x#1#27                                              1 	(obj:0.03298)
x#2#27                                              1 	(obj:0.03145)
x#3#53                                              1 	(obj:0.02074)
x#4#46                                              1 	(obj:0.02584)
x#5#33                                              1 	(obj:0.00986)
x#6#46                                              1 	(obj:0.02482)
x#7#18                                              1 	(obj:0.00391)
x#8#21                                              1 	(obj:0.07361)
x#9#27                                              1 	(obj:0.00816)
x#10#46                                             1 	(obj:0.00629)
x#11#21                                             1 	(obj:0.00544)
x#12#46                                             1 	(obj:0.03366)
x#13#58                                             1 	(obj:0.01887)
x#14#33                                             1 	(obj:0.01581)
x#15#21                                             1 	(obj:0.03655)
x#16#21                                             1 	(obj:0.01309)
x#17#58                                             1 	(obj:0.00833)
x#18#58                                             1 	(obj:0.06324)
x#19#46                                             1 	(obj:0.03094)
x#20#56                                             1 	(obj:0.01275)
x#21#27                                             1 	(obj:0.02958)
x#22#27                                             1 	(obj:0.01853)
x#23#18                                             1 	(obj:0.01054)
x#24#27                                             1 	(obj:0.02584)
x#25#21                                             1 	(obj:0.02873)
x#26#33                                             1 	(obj:0.00595)
x#27#33                                             1 	(obj:0.01207)
x#28#21                                             1 	(obj:0.01666)
x#29#21                                             1 	(obj:0.01887)
x#30#58                                             1 	(obj:0.02176)
x#31#18                                             1 	(obj:0.01394)
x#32#56                                             1 	(obj:0.03434)
x#33#46                                             1 	(obj:0.00272)
x#34#58                                             1 	(obj:0.04063)
x#35#33                                             1 	(obj:0.03689)
x#36#18                                             1 	(obj:0.01955)
x#37#21                                             1 	(obj:0.04607)
x#38#53                                             1 	(obj:0.02142)
x#39#21                                             1 	(obj:0.03978)
x#40#53                                             1 	(obj:0.02788)
x#41#11                                             1 	(obj:0.01037)
x#42#27                                             1 	(obj:0.01445)
x#43#53                                             1 	(obj:0.03468)
x#44#46                                             1 	(obj:0.02414)
x#45#11                                             1 	(obj:0.03332)
x#46#56                                             1 	(obj:0.02091)
x#47#33                                             1 	(obj:0.02992)
x#48#56                                             1 	(obj:0.03315)
x#49#46                                             1 	(obj:0.04386)
x#50#11                                             1 	(obj:0.01989)
x#51#56                                             1 	(obj:0.02652)
x#52#58                                             1 	(obj:0.03536)
x#53#46                                             1 	(obj:0.03162)
x#54#56                                             1 	(obj:0.03978)
x#55#27                                             1 	(obj:0.02516)
x#56#11                                             1 	(obj:0.00986)
x#57#53                                             1 	(obj:0.01445)
x#58#58                                             1 	(obj:0.02329)
x#59#11                                             1 	(obj:0.0221)
x#60#21                                             1 	(obj:0.04964)
x#61#18                                             1 	(obj:0.04454)
x#62#11                                             1 	(obj:0.01938)
x#63#27                                             1 	(obj:0.01309)
x#64#11                                             1 	(obj:0.03298)
x#65#56                                             1 	(obj:0.03893)
x#66#56                                             1 	(obj:0.00493)
x#67#11                                             1 	(obj:0.02856)
x#68#46                                             1 	(obj:0.03145)
x#69#11                                             1 	(obj:0.00595)
x#70#18                                             1 	(obj:0.03519)
x#71#33                                             1 	(obj:0.0374)
x#72#27                                             1 	(obj:0.04131)
x#73#18                                             1 	(obj:0.0238)
x#74#53                                             1 	(obj:0.0289)
x#75#53                                             1 	(obj:0.02006)
x#76#18                                             1 	(obj:0.0425)
x#77#53                                             1 	(obj:0.02941)
x#78#33                                             1 	(obj:0.01666)
x#79#27                                             1 	(obj:0.01224)
x#80#27                                             1 	(obj:0.02074)
x#81#46                                             1 	(obj:0.01479)
x#82#53                                             1 	(obj:0.01462)
x#83#33                                             1 	(obj:0.01377)
x#84#53                                             1 	(obj:0.02142)
x#85#58                                             1 	(obj:0.0119)
x#86#46                                             1 	(obj:0.00969)
x#87#21                                             1 	(obj:0.02057)
x#88#58                                             1 	(obj:0.03383)
x#89#21                                             1 	(obj:0.01496)
x#90#56                                             1 	(obj:0.02907)
x#91#18                                             1 	(obj:0.02652)
x#92#53                                             1 	(obj:0.01088)
x#93#58                                             1 	(obj:0.01598)
x#94#58                                             1 	(obj:0.02686)
x#95#58                                             1 	(obj:0.01632)
x#96#56                                             1 	(obj:0.01275)
x#97#11                                             1 	(obj:0.03553)
x#98#11                                             1 	(obj:0.01921)
x#99#33                                             1 	(obj:0.02822)
x#100#33                                            1 	(obj:0.03553)
